# Solution for model obj
# Objective value = 154
x0_5 0
x0_7 0
x0_6 0
x0_8 1
x0_3 0
x1_6 0
x1_5 1
x1_0 0
x1_4 0
x1_7 0
x2_4 0
x2_0 0
x2_7 0
x2_2 0
x2_8 1
x3_6 1
x3_5 0
x3_7 0
x3_0 0
x3_8 0
x4_1 1
x4_6 0
x4_7 0
x4_5 0
x4_0 0
x5_0 1
x5_7 0
x5_4 0
x5_2 0
x5_8 0
x6_5 0
x6_7 1
x6_6 0
x6_2 0
x6_8 0
x7_7 0
x7_0 1
x7_4 0
x7_2 0
x7_8 0
x8_5 0
x8_7 0
x8_6 0
x8_2 1
x8_8 0
x9_2 0
x9_6 0
x9_5 0
x9_8 0
x9_3 1
x10_6 0
x10_4 1
x10_0 0
x10_8 0
x10_3 0
